NAME : optical-integer.-16589509.tour
COMMENT : Length = -16589509
COMMENT : Found by LKH [Keld Helsgaun] Wed May 19 13:59:14 2021
TYPE : TOUR
DIMENSION : 174
TOUR_SECTION
1
57
62
69
12
65
89
143
114
113
103
111
100
110
106
129
136
174
123
124
125
126
122
121
127
119
135
138
167
139
169
116
131
140
173
137
165
166
161
162
163
164
160
159
99
115
102
117
120
101
104
105
109
20
73
39
2
51
88
150
71
10
75
157
52
67
87
28
14
8
132
134
145
112
171
26
41
78
146
34
98
22
19
84
59
49
9
43
27
15
60
42
76
47
130
168
172
133
156
142
149
170
147
107
33
83
25
31
80
82
30
77
66
79
18
158
155
45
29
93
118
56
154
4
46
90
35
94
7
38
108
95
32
53
58
74
92
24
63
11
17
16
3
68
128
40
70
36
72
85
13
96
21
5
37
91
6
44
148
144
48
141
97
55
50
81
64
61
23
54
86
152
151
153
-1
EOF
